c 56_3_checker_6cl.cnf
c
c field = 56
c formula set type = 3_checker_6cl
c
p cnf 6 42
104 
106 
108 
-103 
-100 
-112 
105 
107 
109 
-102 
-101 
-113 
104 
106 
108 
-113 
-102 
-114 
105 
107 
109 
-112 
-103 
-115 
106 
108 
112 
-105 
-102 
-114 
107 
109 
113 
-104 
-103 
-115 
106 
108 
112 
-115 
-104 
-116 
107 
109 
113 
-114 
-105 
-117 
108 
112 
114 
-107 
-104 
-116 
109 
113 
115 
-106 
-105 
-117 
108 
112 
114 
-117 
-106 
-118 
109 
113 
115 
-116 
-107 
-119 
112 
114 
116 
-109 
-106 
-118 
113 
115 
117 
-108 
-107 
-119 
50 
80 
140 
-171 
-20 
-200 
51 
81 
141 
-170 
-21 
-201 
80 
140 
170 
-51 
-20 
-200 
81 
141 
171 
-50 
-21 
-201 
80 
140 
170 
-201 
-50 
-230 
81 
141 
171 
-200 
-51 
-231 
140 
170 
200 
-81 
-50 
-230 
141 
171 
201 
-80 
-51 
-231 
140 
170 
200 
-231 
-80 
-260 
141 
171 
201 
-230 
-81 
-261 
46 
78 
142 
-175 
-14 
-206 
47 
79 
143 
-174 
-15 
-207 
78 
142 
174 
-47 
-14 
-206 
79 
143 
175 
-46 
-15 
-207 
78 
142 
174 
-207 
-46 
-238 
79 
143 
175 
-206 
-47 
-239 
142 
174 
206 
-79 
-46 
-238 
143 
175 
207 
-78 
-47 
-239 
54 
82 
138 
-167 
-26 
-194 
55 
83 
139 
-166 
-27 
-195 
82 
138 
166 
-55 
-26 
-194 
83 
139 
167 
-54 
-27 
-195 
82 
138 
166 
-195 
-54 
-222 
83 
139 
167 
-194 
-55 
-223 
138 
166 
194 
-83 
-54 
-222 
139 
167 
195 
-82 
-55 
-223 
138 
166 
194 
-223 
-82 
-250 
139 
167 
195 
-222 
-83 
-251 
